60, 200
180, 200
100, 180
140, 180
20, 160
80, 160
200, 160
140, 140
40, 120
120, 120
180, 100
60, 80
100, 80
180, 60
20, 40
100, 40
200, 40
20, 20
60, 20
160, 20
180, 150
50, 80
110, 50
120, 60
20, 60
140, 40
200, 120
20, 30
70, 10
190, 130